100 6239
688 1056 86 1320 396 860 132 1056 86 1188 344 264 792 1320 172 516 264 792 924 1320 688 528 660 774 774 924 792 172 602 688 774 528 660 602 430 264 774 792 774 396 344 688 430 924 132 172 660 132 602 396 774 132 924 1188 1056 516 528 792 430 396 792 1056 86 396 1188 430 1056 264 132 924 774 774 172 396 860 86 258 1188 396 602 172 396 924 792 860 860 430 860 264 602 1056 528 860 660 344 344 86 258 258 258 
672 1160 84 1450 435 840 145 1160 84 1305 336 290 870 1450 168 504 290 870 1015 1450 672 580 725 756 756 1015 870 168 588 672 756 580 725 588 420 290 756 870 756 435 336 672 420 1015 145 168 725 145 588 435 756 145 1015 1305 1160 504 580 870 420 435 870 1160 84 435 1305 420 1160 290 145 1015 756 756 168 435 840 84 252 1305 435 588 168 435 1015 870 840 840 420 840 290 588 1160 580 840 725 336 336 84 252 252 252 
